\ Model Routes
\ LP format - for model browsing. Use MPS format to capture full model detail.
Maximize
  - 191.7153353028244 R{0,0} + 623.2046552982704 R{0,1}
   + 623.2046552982704 R{0,2} - 249.2301939667805 R{0,3}
   + 222.8649545650627 R{0,4} + 892.5014194710873 R{0,5}
   + 530.368874382378 R{0,6} + 623.2046552982704 R{0,7}
   + 568.2280287393723 R{0,8} + 827.8992369343669 R{0,9}
   + 827.8992369343669 R{0,10} + 267.0358082253268 R{0,11}
   - 256.140831891889 R{1,0} + 41.44651618699046 R{1,1}
   + 468.947430945026 R{1,2} + 79.23743184435932 R{1,3}
   + 695.1356039397549 R{1,4} + 696.3097763079262 R{1,5}
   + 269.1660952302026 R{1,6} + 909.4192928814687 R{1,7}
   + 464.83263527078 R{1,8} + 423.4987254833815 R{1,9}
   + 402.9798603522378 R{1,10} + 1082.448900969076 R{1,11}
   + 363.9350466113897 R{1,12} + 1115.451914910053 R{1,13}
   + 750.1775358534616 R{1,14} + 1198.881248318718 R{2,0}
   + 1198.881248318718 R{2,1} - 278.4443928850388 R{2,2}
   - 59.13410337035452 R{2,3} + 602.7748664658451 R{2,4}
   + 1100.505917706273 R{2,5} + 629.9638570536306 R{2,6}
   + 1127.126554447374 R{2,7} + 1121.170320079995 R{2,8}
   + 629.9638570536306 R{2,9} + 1342.587190543974 R{2,10}
   + 343.8687336675509 R{2,11} + 254.2699887389686 R{2,12}
   + 1214.287608458526 R{2,13} + 322.9837718822505 R{2,14}
   + 916.1789585751681 R{2,15} + 1092.841249994739 R{2,16}
   + 828.8248253792985 R{2,17} + 1165.392079011422 R{2,18}
   + 961.3134247701812 R{2,19} - 260.2482995389823 R{3,0}
   + 351.8426476026959 R{3,1} + 719.7836108692254 R{3,2}
   + 1080.786328139346 R{3,3} + 492.9464208185989 R{3,4}
   + 161.0958018711246 R{3,5} + 281.2369957148356 R{3,6}
   + 529.0367651376541 R{3,7} - 22.30873993694428 R{3,8}
   + 173.8853614733317 R{3,9} + 229.5282890752563 R{3,10}
   + 326.1028234903378 R{3,11} + 671.5458124135105 R{3,12}
   + 251.979883422221 R{3,13} + 1554.444379755494 R{3,14}
   + 836.3520245627558 R{3,15} - 242.5208875955131 R{4,0}
   + 878.635312495808 R{4,1} + 1195.212895582122 R{4,2}
   + 1214.819408013214 R{4,3} + 925.6915839803969 R{4,4}
   + 1646.674236240239 R{4,5} + 1016.297924840096 R{4,6}
   + 1646.674236240239 R{4,7} + 665.1634865029898 R{4,8}
   + 1140.296096368832 R{4,9} + 807.2806385855142 R{4,10}
   + 1233.775984953705 R{4,11} + 1724.585445857285 R{4,12}
   + 1295.034008826087 R{4,13} + 1170.756602524494 R{4,14}
   + 1239.334394900113 R{4,15} + 1650.088710787785 R{4,16}
   + 1381.153030438722 R{4,17} + 751.9378934455042 R{4,18}
   + 1521.876175183008 R{4,19} + 1059.655324689196 R{4,20}
   + 1113.795618383922 R{4,21} + 1429.87501220425 R{4,22}
   - 231.9775664337766 R{5,0} + 166.8396544238635 R{5,1}
   + 729.4065638506388 R{5,2} + 1489.196998634792 R{5,3}
   + 736.2041623594807 R{5,4} + 98.51797049164725 R{5,5}
   + 1670.144301097219 R{5,6} + 1518.79384367729 R{5,7}
   + 1389.677728954512 R{5,8} + 1131.464588093679 R{5,9}
   + 2.281632111274064 R{5,10} + 618.0096177194171 R{5,11}
   + 1471.39934935254 R{5,12} + 1317.044246904741 R{5,13}
   + 843.0451978585795 R{5,14} + 61.8627039609317 R{5,15}
   - 231.1436095783099 R{6,0} + 839.5257989100787 R{6,1}
   + 943.9914650224805 R{6,2} + 1459.583048938017 R{6,3}
   + 120.9357620107399 R{6,4} + 1623.977687421505 R{6,5}
   + 1509.986624203804 R{6,6} + 1061.742918795672 R{6,7}
   + 1093.076083123302 R{6,8} + 1681.80016882361 R{6,9}
   + 1277.031138350791 R{6,10} + 1598.252458167906 R{6,11}
   + 1054.632581131167 R{6,12} + 961.1856219524175 R{6,13}
   + 679.5855002022806 R{6,14} + 1270.704309734434 R{6,15}
   + 679.5855002022806 R{6,16} + 838.4276981912378 R{6,17}
   + 1667.92519149447 R{6,18} + 1079.333788097596 R{6,19}
   + 1423.209275022559 R{6,20} + 1517.402265789817 R{6,21}
   + 762.2019390937819 R{6,22}
Subject To
 R00: R{0,0} <= 1
 R01: R{0,1} <= 1
 R02: R{0,2} <= 1
 R03: R{0,3} <= 1
 R04: R{0,4} <= 1
 R05: R{0,5} <= 1
 R06: R{0,6} <= 1
 R07: R{0,7} <= 1
 R08: R{0,8} <= 1
 R09: R{0,9} <= 1
 R010: R{0,10} <= 1
 R011: R{0,11} <= 1
 R012: R{1,0} <= 1
 R013: R{1,1} <= 1
 R014: R{1,2} <= 1
 R015: R{1,3} <= 1
 R016: R{1,4} <= 1
 R017: R{1,5} <= 1
 R018: R{1,6} <= 1
 R019: R{1,7} <= 1
 R020: R{1,8} <= 1
 R021: R{1,9} <= 1
 R022: R{1,10} <= 1
 R023: R{1,11} <= 1
 R024: R{1,12} <= 1
 R025: R{1,13} <= 1
 R026: R{1,14} <= 1
 R027: R{2,0} <= 1
 R028: R{2,1} <= 1
 R029: R{2,2} <= 1
 R030: R{2,3} <= 1
 R031: R{2,4} <= 1
 R032: R{2,5} <= 1
 R033: R{2,6} <= 1
 R034: R{2,7} <= 1
 R035: R{2,8} <= 1
 R036: R{2,9} <= 1
 R037: R{2,10} <= 1
 R038: R{2,11} <= 1
 R039: R{2,12} <= 1
 R040: R{2,13} <= 1
 R041: R{2,14} <= 1
 R042: R{2,15} <= 1
 R043: R{2,16} <= 1
 R044: R{2,17} <= 1
 R045: R{2,18} <= 1
 R046: R{2,19} <= 1
 R047: R{3,0} <= 1
 R048: R{3,1} <= 1
 R049: R{3,2} <= 1
 R050: R{3,3} <= 1
 R051: R{3,4} <= 1
 R052: R{3,5} <= 1
 R053: R{3,6} <= 1
 R054: R{3,7} <= 1
 R055: R{3,8} <= 1
 R056: R{3,9} <= 1
 R057: R{3,10} <= 1
 R058: R{3,11} <= 1
 R059: R{3,12} <= 1
 R060: R{3,13} <= 1
 R061: R{3,14} <= 1
 R062: R{3,15} <= 1
 R063: R{4,0} <= 1
 R064: R{4,1} <= 1
 R065: R{4,2} <= 1
 R066: R{4,3} <= 1
 R067: R{4,4} <= 1
 R068: R{4,5} <= 1
 R069: R{4,6} <= 1
 R070: R{4,7} <= 1
 R071: R{4,8} <= 1
 R072: R{4,9} <= 1
 R073: R{4,10} <= 1
 R074: R{4,11} <= 1
 R075: R{4,12} <= 1
 R076: R{4,13} <= 1
 R077: R{4,14} <= 1
 R078: R{4,15} <= 1
 R079: R{4,16} <= 1
 R080: R{4,17} <= 1
 R081: R{4,18} <= 1
 R082: R{4,19} <= 1
 R083: R{4,20} <= 1
 R084: R{4,21} <= 1
 R085: R{4,22} <= 1
 R086: R{5,0} <= 1
 R087: R{5,1} <= 1
 R088: R{5,2} <= 1
 R089: R{5,3} <= 1
 R090: R{5,4} <= 1
 R091: R{5,5} <= 1
 R092: R{5,6} <= 1
 R093: R{5,7} <= 1
 R094: R{5,8} <= 1
 R095: R{5,9} <= 1
 R096: R{5,10} <= 1
 R097: R{5,11} <= 1
 R098: R{5,12} <= 1
 R099: R{5,13} <= 1
 R0100: R{5,14} <= 1
 R0101: R{5,15} <= 1
 R0102: R{6,0} <= 1
 R0103: R{6,1} <= 1
 R0104: R{6,2} <= 1
 R0105: R{6,3} <= 1
 R0106: R{6,4} <= 1
 R0107: R{6,5} <= 1
 R0108: R{6,6} <= 1
 R0109: R{6,7} <= 1
 R0110: R{6,8} <= 1
 R0111: R{6,9} <= 1
 R0112: R{6,10} <= 1
 R0113: R{6,11} <= 1
 R0114: R{6,12} <= 1
 R0115: R{6,13} <= 1
 R0116: R{6,14} <= 1
 R0117: R{6,15} <= 1
 R0118: R{6,16} <= 1
 R0119: R{6,17} <= 1
 R0120: R{6,18} <= 1
 R0121: R{6,19} <= 1
 R0122: R{6,20} <= 1
 R0123: R{6,21} <= 1
 R0124: R{6,22} <= 1
 R1_0: R{0,0} + R{0,1} + R{0,2} + R{0,3} + R{0,4} + R{0,5} + R{0,6}
   + R{0,7} + R{0,8} + R{0,9} + R{0,10} + R{0,11} <= 1
 R1_1: R{1,0} + R{1,1} + R{1,2} + R{1,3} + R{1,4} + R{1,5} + R{1,6}
   + R{1,7} + R{1,8} + R{1,9} + R{1,10} + R{1,11} + R{1,12} + R{1,13}
   + R{1,14} <= 1
 R1_2: R{2,0} + R{2,1} + R{2,2} + R{2,3} + R{2,4} + R{2,5} + R{2,6}
   + R{2,7} + R{2,8} + R{2,9} + R{2,10} + R{2,11} + R{2,12} + R{2,13}
   + R{2,14} + R{2,15} + R{2,16} + R{2,17} + R{2,18} + R{2,19} <= 1
 R1_3: R{3,0} + R{3,1} + R{3,2} + R{3,3} + R{3,4} + R{3,5} + R{3,6}
   + R{3,7} + R{3,8} + R{3,9} + R{3,10} + R{3,11} + R{3,12} + R{3,13}
   + R{3,14} + R{3,15} <= 1
 R1_4: R{4,0} + R{4,1} + R{4,2} + R{4,3} + R{4,4} + R{4,5} + R{4,6}
   + R{4,7} + R{4,8} + R{4,9} + R{4,10} + R{4,11} + R{4,12} + R{4,13}
   + R{4,14} + R{4,15} + R{4,16} + R{4,17} + R{4,18} + R{4,19} + R{4,20}
   + R{4,21} + R{4,22} <= 1
 R1_5: R{5,0} + R{5,1} + R{5,2} + R{5,3} + R{5,4} + R{5,5} + R{5,6}
   + R{5,7} + R{5,8} + R{5,9} + R{5,10} + R{5,11} + R{5,12} + R{5,13}
   + R{5,14} + R{5,15} <= 1
 R1_6: R{6,0} + R{6,1} + R{6,2} + R{6,3} + R{6,4} + R{6,5} + R{6,6}
   + R{6,7} + R{6,8} + R{6,9} + R{6,10} + R{6,11} + R{6,12} + R{6,13}
   + R{6,14} + R{6,15} + R{6,16} + R{6,17} + R{6,18} + R{6,19} + R{6,20}
   + R{6,21} + R{6,22} <= 1
 R2_0: 7 R{2,14} + 7 R{2,19} + 7 R{6,13} + 7 R{6,15} + 7 R{6,19} <= 7
 R2_1: 10 R{1,13} + 10 R{3,1} + 10 R{3,2} + 10 R{3,3} + 10 R{3,6}
   + 10 R{3,14} + 10 R{3,15} + 10 R{6,5} <= 10
 R2_2: <= 0
 R2_3: 4 R{1,6} + 4 R{5,1} + 4 R{5,2} + 4 R{5,4} + 4 R{5,10} + 4 R{6,2}
   + 4 R{6,3} + 4 R{6,5} + 4 R{6,6} + 4 R{6,9} + 4 R{6,13} + 4 R{6,15}
   + 4 R{6,18} + 4 R{6,19} + 4 R{6,21} <= 4
 R2_4: <= 0
 R2_5: 5 R{5,1} + 5 R{5,2} + 5 R{5,5} <= 5
 R2_6: 10 R{1,1} + 10 R{1,3} + 10 R{1,4} + 10 R{1,5} + 10 R{1,6}
   + 10 R{1,7} + 10 R{1,8} + 10 R{1,9} + 10 R{1,10} + 10 R{1,11}
   + 10 R{1,13} + 10 R{1,14} + 10 R{2,17} + 10 R{4,22} + 10 R{5,7}
   + 10 R{5,12} <= 10
 R2_7: 6 R{1,1} + 6 R{1,2} + 6 R{1,3} + 6 R{1,4} + 6 R{1,5} + 6 R{1,6}
   + 6 R{1,7} + 6 R{1,10} + 6 R{1,11} + 6 R{1,13} + 6 R{1,14} <= 6
 R2_8: <= 0
 R2_9: 12 R{4,1} + 12 R{4,2} + 12 R{4,3} + 12 R{4,4} + 12 R{4,5}
   + 12 R{4,6} + 12 R{4,7} + 12 R{4,8} + 12 R{4,10} + 12 R{4,11}
   + 12 R{4,12} + 12 R{4,14} + 12 R{4,15} + 12 R{4,16} + 12 R{4,17}
   + 12 R{4,18} + 12 R{4,19} + 12 R{4,20} + 12 R{4,22} <= 12
 R2_10: 8 R{2,8} + 8 R{5,3} + 8 R{5,7} + 8 R{6,1} + 8 R{6,2} + 8 R{6,3}
   + 8 R{6,6} + 8 R{6,7} + 8 R{6,9} + 8 R{6,10} + 8 R{6,11} + 8 R{6,12}
   + 8 R{6,21} <= 8
 R2_11: 15 R{0,11} <= 15
 R2_12: <= 0
 R2_13: 8 R{1,7} + 8 R{2,10} <= 8
 R2_14: <= 0
 R2_15: 11 R{0,0} + 11 R{0,1} + 11 R{0,2} + 11 R{0,6} + 11 R{0,7}
   + 11 R{4,1} + 11 R{4,2} + 11 R{4,4} + 11 R{4,11} + 11 R{4,15} <= 11
 R2_16: 5 R{0,9} + 5 R{0,10} + 5 R{0,11} + 5 R{2,16} <= 5
 R2_17: 11 R{1,9} + 11 R{1,12} <= 11
 R2_18: 5 R{1,9} <= 5
 R2_19: 11 R{2,11} + 11 R{2,12} + 11 R{2,15} + 11 R{4,12} + 11 R{4,14}
   + 11 R{4,20} + 11 R{5,13} + 11 R{6,1} + 11 R{6,2} + 11 R{6,3}
   + 11 R{6,4} + 11 R{6,6} + 11 R{6,7} + 11 R{6,8} + 11 R{6,9} + 11 R{6,11}
   + 11 R{6,13} + 11 R{6,15} + 11 R{6,17} + 11 R{6,21} <= 11
 R2_20: 13 R{1,4} + 13 R{1,5} + 13 R{1,8} + 13 R{1,12} + 13 R{2,5}
   + 13 R{2,7} + 13 R{4,1} + 13 R{4,2} + 13 R{4,4} + 13 R{4,5} + 13 R{4,7}
   + 13 R{4,11} + 13 R{4,15} + 13 R{4,16} + 13 R{4,19} <= 13
 R2_21: <= 0
 R2_22: 10 R{4,12} <= 10
 R2_23: 14 R{0,1} + 14 R{0,2} + 14 R{0,7} + 14 R{0,8} + 14 R{0,9}
   + 14 R{0,10} + 14 R{2,0} + 14 R{2,1} + 14 R{2,10} + 14 R{2,13}
   + 14 R{2,18} + 14 R{2,19} + 14 R{4,3} + 14 R{4,6} + 14 R{4,9}
   + 14 R{4,14} + 14 R{5,3} + 14 R{5,6} + 14 R{5,7} + 14 R{6,11} <= 14
 R2_24: <= 10
 R2_25: 13 R{3,11} + 13 R{4,1} + 13 R{4,2} + 13 R{4,3} + 13 R{4,4}
   + 13 R{4,5} + 13 R{4,6} + 13 R{4,7} + 13 R{4,8} + 13 R{4,9} + 13 R{4,10}
   + 13 R{4,11} + 13 R{4,14} + 13 R{4,15} + 13 R{4,16} + 13 R{4,17}
   + 13 R{4,18} + 13 R{4,19} + 13 R{4,20} + 13 R{4,21} + 13 R{4,22} <= 13
 R2_26: 6 R{5,1} + 6 R{5,2} + 6 R{5,3} + 6 R{5,4} + 6 R{5,5} + 6 R{5,6}
   + 6 R{5,8} + 6 R{5,9} + 6 R{5,10} + 6 R{5,11} + 6 R{5,15} <= 6
 R2_27: <= 5
 R2_28: <= 0
 R2_29: <= 0
 R2_30: <= 0
 R2_31: 6 R{1,4} + 6 R{1,5} + 6 R{1,6} + 6 R{1,9} + 6 R{1,10} <= 6
 R2_32: 7 R{0,4} + 7 R{0,5} <= 7
 R2_33: 12 R{1,7} + 12 R{1,14} <= 12
 R2_34: 5 R{2,18} + 5 R{3,15} + 5 R{4,13} + 5 R{5,14} + 5 R{6,21} <= 5
 R2_35: 13 R{4,12} <= 13
 R2_36: <= 0
 R2_37: 5 R{1,10} + 5 R{3,1} + 5 R{3,2} + 5 R{3,3} + 5 R{3,4} + 5 R{3,5}
   + 5 R{3,6} + 5 R{3,7} + 5 R{3,8} + 5 R{3,9} + 5 R{3,12} + 5 R{3,13}
   + 5 R{3,14} + 5 R{3,15} <= 5
 R2_38: <= 0
 R2_39: <= 0
 R2_40: 15 R{2,3} + 15 R{2,4} + 15 R{2,5} + 15 R{2,6} + 15 R{2,7}
   + 15 R{2,9} + 15 R{2,11} + 15 R{2,12} + 15 R{2,15} + 15 R{2,17} <= 15
 R2_41: 5 R{2,8} + 5 R{2,10} + 5 R{2,16} + 5 R{3,2} + 5 R{3,3} + 5 R{3,4}
   + 5 R{3,7} + 5 R{3,10} + 5 R{3,11} + 5 R{3,13} + 5 R{4,5} + 5 R{4,7}
   + 5 R{4,15} + 5 R{4,16} + 5 R{4,17} + 5 R{5,3} + 5 R{5,6} + 5 R{5,7}
   + 5 R{5,8} + 5 R{5,9} + 5 R{5,12} + 5 R{5,13} + 5 R{6,7} + 5 R{6,9}
   + 5 R{6,11} + 5 R{6,18} <= 5
 R2_42: 4 R{2,3} + 4 R{2,4} + 4 R{2,5} + 4 R{2,6} + 4 R{2,7} + 4 R{2,9}
   + 4 R{2,11} <= 4
 R2_43: <= 0
 R2_44: <= 0
 R2_45: <= 0
 R2_46: 9 R{0,6} + 9 R{4,10} + 9 R{4,12} + 9 R{4,13} + 9 R{4,20}
   + 9 R{4,21} <= 9
 R2_47: 7 R{5,1} + 7 R{5,2} + 7 R{5,3} + 7 R{5,4} + 7 R{5,5} + 7 R{5,10}
   <= 7
 R2_48: 4 R{4,1} + 4 R{4,2} + 4 R{4,3} + 4 R{4,4} + 4 R{4,5} + 4 R{4,6}
   + 4 R{4,7} + 4 R{4,8} + 4 R{4,9} + 4 R{4,10} + 4 R{4,11} + 4 R{4,12}
   + 4 R{4,13} + 4 R{4,15} + 4 R{4,16} + 4 R{4,17} + 4 R{4,18} + 4 R{4,19}
   + 4 R{4,20} + 4 R{4,21} + 4 R{4,22} <= 4
 R2_49: <= 0
 R2_50: <= 0
 R2_51: 11 R{4,1} + 11 R{4,2} + 11 R{4,3} + 11 R{4,4} + 11 R{4,5}
   + 11 R{4,7} + 11 R{4,8} + 11 R{4,10} + 11 R{4,11} + 11 R{4,15}
   + 11 R{4,16} + 11 R{4,17} + 11 R{4,19} + 11 R{4,22} + 11 R{6,22} <= 11
 R2_52: 10 R{4,17} + 10 R{4,18} + 10 R{4,22} <= 10
 R2_53: 13 R{4,1} + 13 R{4,4} + 13 R{4,10} + 13 R{4,20} <= 13
 R2_54: 9 R{3,1} + 9 R{3,2} + 9 R{3,3} + 9 R{3,4} + 9 R{3,5} + 9 R{3,6}
   + 9 R{3,7} + 9 R{3,9} + 9 R{3,12} + 9 R{3,13} + 9 R{3,14} <= 9
 R2_55: 8 R{4,22} + 8 R{6,1} + 8 R{6,2} + 8 R{6,3} + 8 R{6,5} + 8 R{6,6}
   + 8 R{6,7} + 8 R{6,8} + 8 R{6,9} + 8 R{6,10} + 8 R{6,11} + 8 R{6,12}
   + 8 R{6,14} + 8 R{6,16} + 8 R{6,17} + 8 R{6,18} + 8 R{6,19} + 8 R{6,20}
   + 8 R{6,21} + 8 R{6,22} <= 8
 R2_56: 6 R{1,7} + 6 R{2,0} + 6 R{2,1} + 6 R{2,8} + 6 R{2,10} + 6 R{2,13}
   + 6 R{2,14} + 6 R{2,16} + 6 R{2,18} + 6 R{3,14} + 6 R{4,2} + 6 R{4,3}
   + 6 R{4,5} + 6 R{4,6} + 6 R{4,7} + 6 R{4,9} + 6 R{4,11} + 6 R{4,12}
   + 6 R{4,14} + 6 R{4,16} + 6 R{4,17} + 6 R{4,18} + 6 R{4,19} + 6 R{4,21}
   + 6 R{4,22} + 6 R{5,8} + 6 R{5,12} + 6 R{6,14} + 6 R{6,16} + 6 R{6,18}
   + 6 R{6,20} + 6 R{6,22} <= 6
 R2_57: <= 0
 R2_58: <= 0
 R2_59: 10 R{1,14} + 10 R{2,13} + 10 R{3,12} + 10 R{4,8} + 10 R{4,12}
   + 10 R{4,13} + 10 R{4,19} <= 10
 R2_60: <= 0
 R2_61: 9 R{1,7} + 9 R{1,14} + 9 R{4,9} + 9 R{4,13} + 9 R{4,21} + 9 R{5,6}
   + 9 R{6,8} <= 9
 R2_62: <= 0
 R2_63: <= 0
 R2_64: <= 0
 R2_65: 5 R{2,0} + 5 R{2,1} + 5 R{2,8} + 5 R{2,19} + 5 R{4,13} + 5 R{6,1}
   + 5 R{6,2} + 5 R{6,3} + 5 R{6,5} + 5 R{6,6} + 5 R{6,8} + 5 R{6,10}
   + 5 R{6,11} + 5 R{6,12} + 5 R{6,13} + 5 R{6,14} + 5 R{6,16} + 5 R{6,17}
   + 5 R{6,19} + 5 R{6,22} <= 5
 R2_66: 7 R{5,15} + 7 R{6,1} + 7 R{6,2} + 7 R{6,5} + 7 R{6,7} + 7 R{6,8}
   + 7 R{6,11} + 7 R{6,13} + 7 R{6,17} <= 7
 R2_67: 3 R{0,1} + 3 R{0,2} + 3 R{0,6} + 3 R{0,7} + 3 R{0,8} + 3 R{0,9}
   + 3 R{0,10} + 3 R{2,0} + 3 R{2,1} + 3 R{2,8} + 3 R{2,10} + 3 R{2,13}
   + 3 R{2,16} + 3 R{2,18} + 3 R{2,19} <= 3
 R2_68: 6 R{6,1} + 6 R{6,2} + 6 R{6,3} + 6 R{6,5} + 6 R{6,6} + 6 R{6,7}
   + 6 R{6,8} + 6 R{6,9} + 6 R{6,10} + 6 R{6,11} + 6 R{6,12} + 6 R{6,13}
   + 6 R{6,14} + 6 R{6,15} + 6 R{6,16} + 6 R{6,17} + 6 R{6,18} + 6 R{6,20}
   + 6 R{6,21} <= 6
 R2_69: <= 7
 R2_70: 11 R{1,1} + 11 R{1,2} + 11 R{1,11} <= 11
 R2_71: 7 R{3,1} + 7 R{3,2} + 7 R{3,3} + 7 R{3,4} + 7 R{3,5} + 7 R{3,7}
   + 7 R{3,8} + 7 R{3,9} + 7 R{3,10} + 7 R{3,12} + 7 R{3,14} + 7 R{3,15}
   + 7 R{5,9} + 7 R{5,13} + 7 R{5,14} + 7 R{6,10} + 7 R{6,20} <= 7
 R2_72: <= 0
 R2_73: <= 0
 R2_74: 5 R{5,1} + 5 R{5,5} <= 5
 R2_75: 8 R{6,1} + 8 R{6,2} + 8 R{6,3} + 8 R{6,5} + 8 R{6,6} + 8 R{6,7}
   + 8 R{6,8} + 8 R{6,9} + 8 R{6,10} + 8 R{6,12} + 8 R{6,13} + 8 R{6,14}
   + 8 R{6,15} + 8 R{6,16} + 8 R{6,17} + 8 R{6,18} + 8 R{6,19} + 8 R{6,20}
   + 8 R{6,21} + 8 R{6,22} <= 8
 R2_76: 12 R{0,4} + 12 R{0,5} + 12 R{1,11} + 12 R{3,3} + 12 R{3,12}
   + 12 R{3,15} <= 12
 R2_77: 7 R{0,5} + 7 R{1,2} + 7 R{1,11} + 7 R{1,13} + 7 R{2,4} + 7 R{2,5}
   + 7 R{2,6} + 7 R{2,7} + 7 R{2,9} + 7 R{2,15} + 7 R{2,17} + 7 R{3,14}
   + 7 R{5,2} + 7 R{5,3} + 7 R{5,4} + 7 R{5,6} + 7 R{5,7} + 7 R{5,8}
   + 7 R{5,9} + 7 R{5,11} + 7 R{5,12} + 7 R{5,13} + 7 R{5,14} + 7 R{6,3}
   + 7 R{6,5} + 7 R{6,6} + 7 R{6,9} + 7 R{6,10} + 7 R{6,12} + 7 R{6,15}
   + 7 R{6,18} + 7 R{6,19} + 7 R{6,20} + 7 R{6,21} <= 7
Bounds
End
